78 34 49 5 97 70 88 74 19 27 12 95 26 61 63 54 1 65 14 39 4 79 18 84 21 71 15 13 11 10 6 76 2 16 75 99 67 98 7 68 37 28 9 90 42 23 48 91 8 44 47 80 17 59 35 66 20 81 94 40 41 25 72 45 32 53 60 93 29 89 57 83 64 82 50 0 96 86 69 73 85 51 3 24 31 38 30 43 56 55 77 92 52 36 62 22 33 46 58 87 

